c File: instances/30_0.45_2.col
c
c Description: Random graph of size 30 vertices and P(0.44999999999999996) of edges between any two vertices.
p col 30 435
e 1 3
e 1 4
e 1 10
e 1 12
e 1 20
e 1 21
e 1 22
e 1 24
e 1 25
e 1 28
e 1 29
e 2 5
e 2 7
e 2 9
e 2 13
e 2 14
e 2 15
e 2 16
e 2 17
e 2 21
e 2 22
e 2 24
e 2 26
e 2 27
e 2 28
e 2 30
e 3 4
e 3 7
e 3 8
e 3 14
e 3 15
e 3 16
e 3 18
e 3 19
e 3 23
e 3 24
e 3 25
e 3 26
e 3 28
e 4 5
e 4 6
e 4 8
e 4 9
e 4 11
e 4 12
e 4 13
e 4 16
e 4 20
e 4 21
e 4 24
e 4 29
e 4 30
e 5 6
e 5 13
e 5 14
e 5 15
e 5 17
e 5 20
e 5 21
e 5 22
e 5 24
e 5 25
e 5 27
e 5 30
e 6 10
e 6 13
e 6 16
e 6 29
e 7 10
e 7 19
e 7 22
e 7 23
e 7 24
e 7 25
e 7 26
e 7 27
e 7 28
e 7 29
e 8 12
e 8 13
e 8 15
e 8 16
e 8 20
e 8 22
e 8 26
e 8 28
e 8 29
e 9 10
e 9 11
e 9 16
e 9 17
e 9 20
e 9 22
e 9 23
e 9 24
e 9 25
e 9 26
e 9 27
e 9 28
e 10 11
e 10 12
e 10 14
e 10 15
e 10 16
e 10 18
e 10 19
e 10 22
e 10 25
e 10 28
e 10 30
e 11 14
e 11 15
e 11 22
e 11 23
e 11 25
e 11 26
e 11 27
e 11 28
e 12 13
e 12 14
e 12 15
e 12 16
e 12 17
e 12 24
e 12 26
e 12 27
e 12 29
e 13 15
e 13 16
e 13 18
e 13 19
e 13 21
e 13 22
e 13 23
e 13 25
e 13 26
e 13 30
e 14 18
e 14 19
e 14 22
e 14 30
e 15 19
e 15 24
e 15 25
e 15 26
e 15 27
e 16 17
e 16 19
e 16 20
e 16 21
e 16 22
e 16 23
e 16 27
e 16 29
e 16 30
e 17 18
e 17 20
e 17 26
e 17 27
e 17 30
e 18 19
e 18 21
e 18 22
e 18 23
e 18 25
e 18 27
e 18 28
e 18 30
e 19 20
e 19 24
e 19 26
e 19 29
e 19 30
e 20 22
e 20 23
e 20 30
e 21 23
e 21 24
e 21 25
e 21 27
e 21 28
e 21 29
e 22 25
e 22 26
e 22 28
e 22 29
e 22 30
e 23 25
e 23 26
e 23 29
e 23 30
e 24 25
e 24 27
e 24 28
e 24 29
e 24 30
e 25 26
e 25 27
e 25 29
e 25 30
e 26 30
e 27 29
e 28 29